1 19
2 4
3 13
4 10
5 1
6 1
7 4
8 15
9 2
10 13
11 1
12 10
13 1
14 5
15 2
16 1
17 1
18 19
19 5
20 1
21 8
22 1
23 16
24 5
25 13
26 1
27 12
28 15
29 7
30 12
31 17
32 6
33 15
34 13
35 1
36 5
37 4
38 3
39 6
40 13
41 6
42 5
43 6
44 7
45 1
46 4
47 4
48 17
49 19
50 1
51 16
52 11
53 1
54 5
55 13
56 2
57 1
58 19
59 16
60 5
61 1
62 5
63 5
64 3
65 1
66 2
67 6
68 2
69 4
70 5
71 3
72 1
73 3
74 5
75 1
76 5
77 1
78 1
79 3
80 4
81 4
82 2
83 1
84 3
85 19
86 3
87 18
88 5
89 3
90 7
91 18
92 16
93 1
94 13
95 1
96 19
97 5
98 14
99 19
100 8
101 4
102 3
103 16
104 6
105 4
106 2
107 3
108 1
109 4
110 3
111 2
112 2
113 15
114 10
115 5
116 10
117 6
118 2
119 15
120 12
121 2
122 1
123 3
124 17
125 15
126 1
127 16
128 1
129 2
130 1
131 1
132 1
133 4
134 3
135 2
136 4
137 3
138 1
139 2
140 13
141 13
142 2
143 2
144 1
145 7
146 13
147 4
148 15
149 6
150 12
151 8
152 2
153 7
154 3
155 5
156 1
157 2
158 4
159 1
160 1
161 3
162 2
163 4
164 4
165 13
166 2
167 12
168 12
169 2
170 4
171 5
172 17
173 19
174 16
175 1
176 16
177 6
178 1
179 17
180 18
181 2
182 15
183 8
184 17
185 16
186 8
187 8
188 1
189 2
190 2
191 11
192 19
193 5
194 15
195 19
196 3
197 1
198 2
199 5
200 3
201 9
202 1
203 4
204 1
205 1
206 4
207 2
208 15
209 15
210 14
211 14
212 14
213 5
214 17
215 17
216 1
217 1
218 13
219 1
220 1
221 4
222 5
223 5
224 16
225 5
226 15
227 18
228 6
229 17
230 1
231 13
232 2
233 3
234 1
235 1
236 1
237 2
238 6
239 2
240 1
241 7
242 12
243 2
244 16
245 12
246 16
247 12
248 7
249 13
250 11
251 11
252 10
253 11
254 11
255 10
256 11
257 10
258 4
259 15
260 18
261 4
262 5
263 7
264 18
265 16
266 1
267 19
268 17
269 3
270 17
271 9
272 16
273 5
274 6
275 13
276 19
277 8
278 1
279 5
280 4
281 1
282 2
283 3
284 4
285 1
286 19
287 19
288 18
289 1
290 17
291 1
292 1
293 1
294 15
295 3
296 1
297 6
298 2
299 16
300 8
301 15
302 14
303 4
304 1
305 16
306 5
307 1
308 4
309 2
310 2
311 4
312 1
313 1
314 2
315 6
316 16
317 13
318 3
319 15
320 7
321 7
322 2
323 19
324 4
325 5
326 5
327 18
328 7
329 1
330 1
331 3
332 6
333 19
334 15
335 9
336 17
337 10
338 16
339 2
340 8
341 13
342 15
343 16
344 5
345 2
346 3
347 4
348 4
349 4
350 1
351 2
352 14
353 7
354 7
355 1
356 7
357 7
358 10
359 16
360 4
361 14
362 5
363 2
364 5
365 15
366 16
367 8
368 8
369 1
370 12
371 6
372 6
373 6
374 2
375 3
376 1
377 6
378 2
379 15
380 1
381 1
382 6
383 13
384 6
385 12
386 1
387 12
388 19
389 3
390 3
391 1
392 10
393 8
394 8
395 8
396 9
397 9
398 10
399 9
400 16
401 4
402 16
403 1
404 1
405 12
406 17
407 6
408 1
409 3
410 2
411 1
412 1
413 19
414 19
415 18
416 5
417 6
418 5
419 8
420 1
421 6
422 3
423 4
424 2
425 1
426 3
427 2
428 1
429 4
430 2
431 3
432 5
433 1
434 19
435 4
436 2
437 1
438 12
439 19
440 8
441 17
442 7
443 1
444 4
445 6
446 16
447 10
448 8
449 2
450 7
451 19
452 1
453 17
454 4
455 1
456 2
457 3
458 2
459 5
460 4
461 12
